c Generated map
c Size: 8 * 8, weights in range: 1 to 10, walls: True, with ratio 0.05
c dim 9 of 10
c
p sp 64 100
c graph contains 64 nodes and 100 arcs
c
a 1 9 7
a 9 1 7
a 1 2 2
a 2 1 2
a 2 10 5
a 10 2 5
a 2 3 3
a 3 2 3
a 3 11 10
a 11 3 10
a 3 4 10
a 4 3 10
a 4 12 4
a 12 4 4
a 4 5 1
a 5 4 1
a 5 6 8
a 6 5 8
a 6 14 4
a 14 6 4
a 6 7 4
a 7 6 4
a 7 15 6
a 15 7 6
a 7 8 10
a 8 7 10
a 8 16 2
a 16 8 2
a 9 17 10
a 17 9 10
a 9 10 6
a 10 9 6
a 10 18 10
a 18 10 10
a 10 11 6
a 11 10 6
a 11 19 6
a 19 11 6
a 11 12 2
a 12 11 2
a 14 22 9
a 22 14 9
a 14 15 7
a 15 14 7
a 15 23 1
a 23 15 1
a 15 16 5
a 16 15 5
a 16 24 8
a 24 16 8
a 17 25 3
a 25 17 3
a 17 18 6
a 18 17 6
a 18 26 10
a 26 18 10
a 18 19 5
a 19 18 5
a 19 27 3
a 27 19 3
a 21 29 8
a 29 21 8
a 21 22 3
a 22 21 3
a 22 30 4
a 30 22 4
a 22 23 9
a 23 22 9
a 23 31 5
a 31 23 5
a 23 24 7
a 24 23 7
a 24 32 5
a 32 24 5
a 25 33 7
a 33 25 7
a 25 26 4
a 26 25 4
a 26 34 6
a 34 26 6
a 26 27 1
a 27 26 1
a 27 35 3
a 35 27 3
a 27 28 7
a 28 27 7
a 28 36 8
a 36 28 8
a 28 29 1
a 29 28 1
a 29 37 5
a 37 29 5
a 29 30 8
a 30 29 8
a 30 38 3
a 38 30 3
a 30 31 8
a 31 30 8
a 31 39 2
a 39 31 2
a 31 32 8
a 32 31 8
a 32 40 9
a 40 32 9
a 33 41 10
a 41 33 10
a 33 34 1
a 34 33 1
a 34 42 8
a 42 34 8
a 34 35 6
a 35 34 6
a 35 43 1
a 43 35 1
a 35 36 2
a 36 35 2
a 36 44 7
a 44 36 7
a 36 37 9
a 37 36 9
a 37 45 10
a 45 37 10
a 37 38 9
a 38 37 9
a 38 46 7
a 46 38 7
a 38 39 5
a 39 38 5
a 39 47 10
a 47 39 10
a 39 40 10
a 40 39 10
a 40 48 9
a 48 40 9
a 41 49 5
a 49 41 5
a 41 42 6
a 42 41 6
a 42 50 2
a 50 42 2
a 42 43 4
a 43 42 4
a 43 51 9
a 51 43 9
a 43 44 7
a 44 43 7
a 44 52 3
a 52 44 3
a 44 45 6
a 45 44 6
a 45 53 4
a 53 45 4
a 45 46 7
a 46 45 7
a 46 47 5
a 47 46 5
a 47 55 9
a 55 47 9
a 47 48 8
a 48 47 8
a 48 56 2
a 56 48 2
a 49 57 2
a 57 49 2
a 49 50 3
a 50 49 3
a 50 58 3
a 58 50 3
a 50 51 10
a 51 50 10
a 51 59 1
a 59 51 1
a 51 52 7
a 52 51 7
a 52 60 5
a 60 52 5
a 52 53 8
a 53 52 8
a 53 61 2
a 61 53 2
a 55 63 9
a 63 55 9
a 55 56 7
a 56 55 7
a 56 64 9
a 64 56 9
a 57 58 2
a 58 57 2
a 58 59 10
a 59 58 10
a 59 60 7
a 60 59 7
a 60 61 7
a 61 60 7
a 61 62 3
a 62 61 3
a 62 63 4
a 63 62 4
a 63 64 6
a 64 63 6
